************************************************************************
file with basedata            : mm50_.bas
initial value random generator: 661963818
************************************************************************
projects                      :  1
jobs (incl. supersource/sink ):  12
horizon                       :  85
RESOURCES
  - renewable                 :  2   R
  - nonrenewable              :  2   N
  - doubly constrained        :  0   D
************************************************************************
PROJECT INFORMATION:
pronr.  #jobs rel.date duedate tardcost  MPM-Time
    1     10      0       20        9       20
************************************************************************
PRECEDENCE RELATIONS:
jobnr.    #modes  #successors   successors
   0        1          3           1   2   3
   1        3          2           7  10
   2        3          2           5  10
   3        3          3           4   9  10
   4        3          1           6
   5        3          2           7   9
   6        3          1           7
   7        3          1           8
   8        3          1          11
   9        3          1          11
  10        3          1          11
  11        1          0        
************************************************************************
REQUESTS/DURATIONS:
jobnr. mode duration  R 1  R 2  R 3  R 4  E(W 1)  E(W 2)  E(W 3)
------------------------------------------------------------------------
  0      1     0       0    0    0    0     0       0       0
  1      1     1       5   10    0    4    15       0       4
  2      1     2       3    5    0    4    16       0       8
  3      1     4       9   10    8    0    76      32       0
  4      1     7       8    5    9    0    91      63       0
  5      1     5       7    7    3    0    70      15       0
  6      1     1       5    8    5    0    13       5       0
  7      1     5       9    7    0    5    80       0      25
  8      1     3       9    8    4    0    51      12       0
  9      1     4       8    5    2    0    52       8       0
 10      1     3       5    5    3    0    30       9       0
 11      1     0       0    0    0    0     0       0       0
************************************************************************
RESOURCEAVAILABILITIES:
  R 1  R 2  R 3
   37   28   26
************************************************************************
RESOURCE LIMITS:
jobnr.  l(R 1)  u(R 1)  l(R 2)  u(R 2)  l(R 3)  u(R 3)
------------------------------------------------------------------------
  0        0       0       0       0       0       0
  1        8      15       0       0       2       4
  2        5       8       0       0       2       4
  3       10      19       4       8       0       0
  4        7      13       5       9       0       0
  5        8      14       2       3       0       0
  6        7      13       3       5       0       0
  7        9      16       0       0       3       5
  8        9      17       2       4       0       0
  9        7      13       1       2       0       0
 10        6      10       2       3       0       0
 11        0       0       0       0       0       0
************************************************************************
SCENARIOS:
------------------------------------------------------------------------
RESOURCE k = 1
s = 1: (0, 11, 19, 63, 74, 97, 8, 92, 42, 59, 37, 0)
s = 2: (0, 14, 14, 46, 99, 53, 19, 71, 48, 50, 42, 0)
s = 3: (0, 10, 18, 113, 83, 81, 18, 82, 30, 52, 32, 0)
s = 4: (0, 9, 12, 127, 74, 94, 10, 72, 44, 61, 18, 0)
s = 5: (0, 18, 15, 92, 81, 48, 18, 52, 40, 56, 30, 0)
s = 6: (0, 9, 31, 74, 151, 101, 15, 63, 44, 45, 18, 0)
s = 7: (0, 8, 16, 47, 95, 87, 11, 57, 83, 52, 39, 0)
s = 8: (0, 14, 14, 56, 69, 94, 14, 51, 61, 62, 32, 0)
s = 9: (0, 18, 12, 83, 55, 59, 10, 86, 35, 54, 29, 0)
s = 10: (0, 15, 15, 138, 60, 53, 12, 46, 43, 46, 43, 0)
s = 11: (0, 12, 9, 65, 95, 56, 18, 97, 60, 78, 28, 0)
s = 12: (0, 18, 15, 78, 65, 61, 10, 102, 58, 67, 20, 0)
s = 13: (0, 13, 26, 83, 54, 53, 9, 67, 62, 36, 33, 0)
s = 14: (0, 28, 21, 81, 73, 98, 15, 57, 67, 53, 42, 0)
s = 15: (0, 12, 20, 118, 57, 68, 12, 62, 48, 66, 46, 0)
s = 16: (0, 16, 13, 70, 76, 97, 9, 84, 66, 75, 25, 0)
s = 17: (0, 13, 12, 82, 69, 38, 15, 107, 52, 42, 44, 0)
s = 18: (0, 12, 15, 98, 94, 47, 8, 78, 38, 63, 20, 0)
s = 19: (0, 12, 19, 73, 94, 60, 9, 102, 48, 43, 25, 0)
s = 20: (0, 12, 20, 94, 119, 71, 10, 97, 81, 32, 16, 0)
s = 21: (0, 20, 18, 132, 83, 85, 18, 56, 44, 44, 43, 0)
s = 22: (0, 16, 16, 74, 83, 81, 19, 83, 43, 40, 21, 0)
s = 23: (0, 23, 20, 60, 74, 48, 13, 80, 38, 35, 20, 0)
s = 24: (0, 16, 19, 46, 86, 48, 12, 60, 62, 51, 21, 0)
s = 25: (0, 11, 18, 65, 91, 61, 10, 49, 93, 68, 48, 0)
s = 26: (0, 12, 12, 103, 72, 134, 9, 73, 53, 61, 25, 0)
s = 27: (0, 10, 14, 80, 123, 102, 17, 70, 53, 32, 24, 0)
s = 28: (0, 13, 24, 84, 69, 53, 14, 75, 76, 51, 27, 0)
s = 29: (0, 13, 12, 83, 89, 40, 14, 64, 56, 87, 33, 0)
s = 30: (0, 12, 28, 71, 64, 54, 13, 138, 60, 65, 21, 0)
s = 31: (0, 19, 12, 48, 63, 72, 12, 78, 82, 33, 35, 0)
s = 32: (0, 14, 14, 63, 118, 72, 14, 49, 84, 72, 16, 0)
s = 33: (0, 15, 14, 61, 117, 88, 9, 105, 51, 49, 30, 0)
s = 34: (0, 16, 17, 96, 72, 93, 17, 101, 95, 43, 35, 0)
s = 35: (0, 12, 21, 86, 47, 118, 15, 60, 51, 70, 37, 0)
s = 36: (0, 16, 14, 64, 89, 49, 11, 118, 38, 66, 27, 0)
s = 37: (0, 26, 12, 54, 60, 93, 11, 48, 44, 45, 29, 0)
s = 38: (0, 11, 16, 82, 117, 61, 12, 72, 34, 55, 32, 0)
s = 39: (0, 11, 11, 73, 86, 72, 9, 90, 46, 50, 24, 0)
s = 40: (0, 18, 14, 68, 61, 69, 15, 75, 71, 38, 19, 0)
s = 41: (0, 17, 29, 66, 69, 76, 12, 50, 45, 42, 42, 0)
s = 42: (0, 17, 17, 78, 91, 63, 10, 89, 80, 66, 40, 0)
s = 43: (0, 14, 10, 92, 113, 82, 16, 89, 58, 47, 40, 0)
s = 44: (0, 18, 12, 107, 138, 65, 17, 63, 51, 52, 55, 0)
s = 45: (0, 11, 19, 119, 90, 88, 18, 88, 51, 77, 27, 0)
s = 46: (0, 17, 25, 48, 68, 76, 11, 78, 44, 37, 21, 0)
s = 47: (0, 12, 10, 66, 102, 75, 14, 77, 33, 48, 45, 0)
s = 48: (0, 13, 16, 46, 79, 61, 11, 53, 43, 51, 34, 0)
s = 49: (0, 12, 23, 54, 77, 41, 8, 108, 39, 66, 20, 0)
s = 50: (0, 11, 17, 83, 80, 87, 15, 76, 55, 34, 30, 0)
s = 51: (0, 11, 22, 78, 96, 50, 20, 132, 31, 38, 24, 0)
s = 52: (0, 12, 10, 74, 68, 78, 13, 79, 46, 60, 37, 0)
s = 53: (0, 14, 20, 50, 117, 59, 9, 98, 31, 49, 37, 0)
s = 54: (0, 21, 17, 159, 58, 78, 20, 105, 40, 29, 33, 0)
s = 55: (0, 16, 16, 69, 140, 45, 17, 117, 40, 84, 25, 0)
s = 56: (0, 18, 15, 84, 118, 72, 17, 82, 48, 75, 24, 0)
s = 57: (0, 10, 16, 73, 94, 68, 9, 120, 30, 41, 35, 0)
s = 58: (0, 14, 10, 62, 100, 102, 20, 45, 37, 62, 24, 0)
s = 59: (0, 11, 17, 55, 88, 87, 11, 112, 29, 63, 39, 0)
s = 60: (0, 14, 24, 119, 86, 71, 12, 62, 54, 35, 20, 0)
s = 61: (0, 13, 13, 99, 94, 75, 13, 88, 51, 45, 24, 0)
s = 62: (0, 12, 11, 51, 80, 96, 17, 79, 42, 78, 31, 0)
s = 63: (0, 11, 21, 60, 75, 72, 10, 108, 41, 51, 37, 0)
s = 64: (0, 11, 18, 53, 104, 86, 18, 117, 35, 51, 24, 0)
s = 65: (0, 15, 19, 100, 51, 114, 15, 148, 74, 52, 39, 0)
s = 66: (0, 9, 25, 127, 126, 51, 15, 114, 46, 57, 24, 0)
s = 67: (0, 19, 21, 112, 84, 51, 18, 67, 33, 58, 33, 0)
s = 68: (0, 14, 11, 77, 95, 38, 19, 65, 64, 55, 39, 0)
s = 69: (0, 11, 18, 105, 144, 43, 10, 96, 54, 51, 32, 0)
s = 70: (0, 16, 16, 58, 140, 51, 14, 98, 63, 62, 31, 0)
s = 71: (0, 20, 18, 129, 115, 79, 11, 64, 46, 48, 32, 0)
s = 72: (0, 15, 15, 118, 83, 97, 15, 93, 47, 66, 22, 0)
s = 73: (0, 13, 9, 69, 129, 55, 17, 78, 49, 39, 32, 0)
s = 74: (0, 10, 24, 62, 95, 59, 12, 100, 62, 66, 18, 0)
s = 75: (0, 19, 14, 62, 88, 56, 12, 44, 66, 36, 18, 0)
s = 76: (0, 10, 18, 61, 74, 67, 13, 48, 45, 42, 32, 0)
s = 77: (0, 14, 26, 61, 115, 84, 17, 122, 44, 48, 29, 0)
s = 78: (0, 17, 15, 105, 144, 69, 23, 73, 75, 56, 18, 0)
s = 79: (0, 13, 15, 72, 146, 85, 12, 134, 58, 35, 36, 0)
s = 80: (0, 22, 17, 69, 57, 84, 12, 81, 34, 57, 34, 0)
s = 81: (0, 19, 15, 46, 107, 90, 15, 49, 102, 60, 49, 0)
s = 82: (0, 15, 14, 81, 89, 62, 19, 102, 55, 30, 34, 0)
s = 83: (0, 16, 14, 103, 100, 68, 15, 93, 37, 48, 27, 0)
s = 84: (0, 12, 17, 66, 95, 75, 14, 96, 50, 41, 31, 0)
s = 85: (0, 20, 15, 59, 52, 39, 11, 61, 72, 31, 36, 0)
s = 86: (0, 24, 13, 44, 63, 75, 12, 79, 59, 73, 44, 0)
s = 87: (0, 21, 9, 87, 83, 109, 17, 91, 71, 43, 40, 0)
s = 88: (0, 18, 9, 102, 75, 47, 22, 117, 41, 31, 35, 0)
s = 89: (0, 14, 14, 89, 80, 56, 21, 89, 33, 52, 18, 0)
s = 90: (0, 13, 14, 53, 58, 54, 15, 86, 29, 33, 27, 0)
s = 91: (0, 14, 26, 82, 76, 49, 19, 83, 46, 37, 28, 0)
s = 92: (0, 14, 18, 57, 114, 36, 12, 73, 56, 31, 20, 0)
s = 93: (0, 13, 16, 77, 91, 103, 17, 43, 59, 93, 41, 0)
s = 94: (0, 21, 25, 66, 113, 81, 13, 56, 41, 62, 23, 0)
s = 95: (0, 14, 24, 72, 136, 59, 18, 67, 39, 55, 22, 0)
s = 96: (0, 15, 20, 86, 104, 90, 16, 53, 57, 54, 35, 0)
s = 97: (0, 14, 19, 123, 56, 49, 9, 64, 32, 63, 36, 0)
s = 98: (0, 14, 24, 114, 75, 71, 10, 86, 46, 37, 21, 0)
s = 99: (0, 14, 12, 55, 112, 76, 16, 74, 67, 60, 29, 0)
s = 100: (0, 15, 14, 86, 107, 101, 19, 109, 59, 41, 34, 0)
s = 101: (0, 21, 18, 60, 97, 72, 20, 53, 29, 42, 46, 0)
s = 102: (0, 13, 12, 57, 93, 56, 18, 74, 84, 67, 29, 0)
s = 103: (0, 15, 13, 98, 78, 50, 19, 63, 48, 37, 34, 0)
s = 104: (0, 18, 13, 123, 52, 91, 8, 79, 46, 44, 19, 0)
s = 105: (0, 10, 24, 60, 73, 123, 15, 90, 58, 55, 39, 0)
s = 106: (0, 11, 9, 67, 126, 102, 12, 44, 53, 63, 38, 0)
s = 107: (0, 15, 12, 84, 83, 62, 15, 93, 40, 65, 28, 0)
s = 108: (0, 11, 16, 90, 155, 88, 13, 62, 62, 67, 30, 0)
s = 109: (0, 15, 11, 82, 105, 61, 8, 84, 37, 60, 17, 0)
s = 110: (0, 9, 13, 65, 61, 84, 16, 90, 62, 43, 33, 0)
s = 111: (0, 14, 27, 70, 58, 54, 13, 53, 53, 40, 43, 0)
s = 112: (0, 11, 23, 92, 57, 78, 11, 48, 77, 37, 28, 0)
s = 113: (0, 16, 22, 83, 73, 90, 15, 130, 48, 82, 30, 0)
s = 114: (0, 23, 14, 84, 90, 73, 16, 97, 36, 41, 41, 0)
s = 115: (0, 11, 11, 106, 64, 49, 9, 98, 70, 34, 19, 0)
s = 116: (0, 13, 12, 81, 80, 59, 9, 69, 51, 60, 31, 0)
s = 117: (0, 21, 27, 53, 63, 75, 10, 96, 74, 47, 49, 0)
s = 118: (0, 17, 10, 91, 79, 56, 14, 99, 38, 39, 22, 0)
s = 119: (0, 24, 15, 55, 79, 41, 9, 120, 58, 29, 26, 0)
s = 120: (0, 11, 23, 69, 75, 52, 13, 54, 79, 94, 48, 0)
s = 121: (0, 23, 11, 81, 103, 83, 10, 83, 29, 50, 23, 0)
s = 122: (0, 12, 29, 83, 63, 86, 13, 86, 72, 50, 18, 0)
s = 123: (0, 21, 20, 76, 80, 62, 12, 110, 42, 48, 18, 0)
s = 124: (0, 10, 13, 102, 107, 62, 18, 76, 51, 57, 31, 0)
s = 125: (0, 14, 21, 78, 107, 57, 16, 89, 63, 36, 41, 0)
s = 126: (0, 13, 10, 97, 60, 51, 15, 74, 53, 56, 37, 0)
s = 127: (0, 16, 17, 84, 61, 83, 21, 67, 49, 82, 19, 0)
s = 128: (0, 20, 14, 72, 86, 89, 15, 87, 78, 41, 30, 0)
s = 129: (0, 14, 15, 51, 82, 67, 9, 58, 55, 43, 28, 0)
s = 130: (0, 20, 14, 79, 92, 97, 12, 74, 63, 32, 33, 0)
s = 131: (0, 20, 10, 63, 69, 92, 25, 87, 76, 51, 18, 0)
s = 132: (0, 20, 19, 68, 131, 83, 18, 57, 36, 51, 23, 0)
s = 133: (0, 11, 15, 90, 66, 44, 8, 105, 43, 71, 42, 0)
s = 134: (0, 9, 16, 100, 88, 74, 11, 87, 47, 39, 28, 0)
s = 135: (0, 18, 11, 67, 100, 44, 11, 58, 30, 56, 28, 0)
s = 136: (0, 17, 18, 70, 103, 68, 16, 70, 50, 90, 40, 0)
s = 137: (0, 8, 16, 74, 58, 58, 9, 108, 53, 49, 47, 0)
s = 138: (0, 13, 15, 94, 67, 101, 14, 68, 41, 39, 33, 0)
s = 139: (0, 24, 25, 103, 85, 61, 18, 66, 76, 78, 33, 0)
s = 140: (0, 14, 22, 43, 143, 64, 13, 65, 72, 49, 23, 0)
s = 141: (0, 10, 18, 111, 59, 59, 10, 66, 48, 59, 42, 0)
s = 142: (0, 16, 20, 50, 64, 91, 12, 106, 37, 54, 41, 0)
s = 143: (0, 16, 20, 85, 107, 80, 10, 58, 52, 67, 37, 0)
s = 144: (0, 17, 20, 101, 71, 83, 16, 110, 44, 69, 19, 0)
s = 145: (0, 14, 10, 91, 94, 86, 12, 90, 48, 55, 35, 0)
s = 146: (0, 18, 23, 75, 92, 127, 14, 132, 79, 53, 24, 0)
s = 147: (0, 26, 21, 46, 63, 54, 13, 76, 46, 36, 34, 0)
s = 148: (0, 13, 15, 95, 109, 68, 15, 85, 75, 59, 21, 0)
s = 149: (0, 11, 16, 46, 64, 55, 10, 96, 51, 77, 29, 0)
s = 150: (0, 21, 20, 82, 77, 50, 10, 85, 63, 40, 36, 0)
s = 151: (0, 15, 24, 58, 78, 49, 16, 82, 34, 62, 28, 0)
s = 152: (0, 18, 13, 91, 103, 72, 17, 62, 59, 59, 19, 0)
s = 153: (0, 17, 27, 52, 81, 85, 12, 62, 34, 58, 29, 0)
s = 154: (0, 14, 14, 85, 102, 45, 10, 59, 60, 53, 24, 0)
s = 155: (0, 17, 29, 50, 115, 116, 8, 70, 40, 78, 29, 0)
s = 156: (0, 15, 15, 42, 107, 84, 8, 67, 51, 62, 25, 0)
s = 157: (0, 11, 13, 93, 61, 63, 10, 111, 42, 73, 24, 0)
s = 158: (0, 10, 13, 56, 91, 71, 18, 76, 43, 52, 23, 0)
s = 159: (0, 12, 20, 128, 72, 109, 10, 113, 46, 55, 35, 0)
s = 160: (0, 18, 17, 103, 92, 65, 12, 82, 45, 83, 41, 0)
s = 161: (0, 15, 11, 59, 132, 59, 13, 56, 60, 43, 28, 0)
s = 162: (0, 16, 12, 110, 107, 69, 10, 84, 76, 63, 41, 0)
s = 163: (0, 16, 13, 98, 82, 43, 14, 52, 48, 41, 29, 0)
s = 164: (0, 12, 13, 105, 75, 87, 8, 49, 61, 64, 23, 0)
s = 165: (0, 20, 12, 107, 123, 45, 13, 71, 97, 36, 24, 0)
s = 166: (0, 19, 18, 79, 73, 85, 11, 87, 45, 37, 20, 0)
s = 167: (0, 17, 16, 72, 86, 59, 13, 73, 34, 47, 23, 0)
s = 168: (0, 9, 12, 93, 80, 64, 15, 94, 56, 49, 52, 0)
s = 169: (0, 13, 14, 69, 73, 54, 12, 63, 35, 49, 42, 0)
s = 170: (0, 11, 16, 84, 102, 102, 18, 113, 49, 51, 32, 0)
s = 171: (0, 13, 16, 58, 77, 72, 11, 60, 59, 54, 22, 0)
s = 172: (0, 17, 10, 87, 113, 45, 9, 135, 40, 53, 18, 0)
s = 173: (0, 13, 16, 56, 84, 73, 13, 65, 51, 88, 27, 0)
s = 174: (0, 22, 20, 86, 71, 61, 12, 76, 42, 65, 27, 0)
s = 175: (0, 12, 16, 102, 96, 85, 9, 66, 52, 44, 27, 0)
s = 176: (0, 16, 23, 55, 80, 81, 10, 136, 80, 53, 34, 0)
s = 177: (0, 10, 14, 42, 63, 51, 14, 60, 50, 55, 28, 0)
s = 178: (0, 11, 11, 90, 64, 41, 19, 105, 45, 86, 23, 0)
s = 179: (0, 22, 15, 89, 76, 47, 15, 100, 45, 52, 30, 0)
s = 180: (0, 21, 20, 93, 134, 64, 15, 54, 58, 61, 27, 0)
s = 181: (0, 9, 19, 72, 160, 59, 12, 51, 81, 40, 37, 0)
s = 182: (0, 10, 18, 99, 68, 57, 17, 87, 33, 61, 25, 0)
s = 183: (0, 20, 19, 130, 138, 52, 15, 87, 53, 35, 21, 0)
s = 184: (0, 12, 23, 89, 101, 61, 8, 107, 61, 57, 25, 0)
s = 185: (0, 11, 15, 89, 91, 49, 16, 72, 41, 44, 32, 0)
s = 186: (0, 16, 17, 78, 108, 105, 9, 77, 51, 97, 33, 0)
s = 187: (0, 15, 13, 102, 56, 99, 15, 78, 58, 94, 30, 0)
s = 188: (0, 20, 12, 74, 103, 71, 18, 64, 89, 75, 27, 0)
s = 189: (0, 16, 14, 60, 66, 77, 13, 65, 42, 51, 44, 0)
s = 190: (0, 14, 20, 104, 92, 69, 9, 45, 64, 53, 21, 0)
s = 191: (0, 15, 18, 64, 81, 104, 19, 93, 38, 58, 52, 0)
s = 192: (0, 16, 9, 72, 89, 88, 10, 108, 63, 57, 29, 0)
s = 193: (0, 18, 20, 54, 152, 90, 12, 57, 56, 56, 24, 0)
s = 194: (0, 10, 9, 43, 84, 74, 10, 91, 37, 35, 23, 0)
s = 195: (0, 11, 14, 68, 85, 65, 8, 84, 34, 36, 31, 0)
s = 196: (0, 19, 24, 89, 88, 82, 14, 71, 62, 64, 36, 0)
s = 197: (0, 27, 20, 64, 162, 71, 8, 106, 44, 59, 40, 0)
s = 198: (0, 23, 18, 66, 110, 66, 13, 121, 42, 52, 24, 0)
s = 199: (0, 12, 17, 81, 136, 53, 9, 129, 53, 40, 32, 0)
s = 200: (0, 20, 23, 56, 80, 60, 15, 70, 50, 41, 27, 0)
------------------------------------------------------------------------
RESOURCE k = 2
s = 1: (0, 0, 0, 27, 51, 21, 3, 0, 10, 9, 11, 0)
s = 2: (0, 0, 0, 20, 69, 12, 8, 0, 12, 8, 13, 0)
s = 3: (0, 0, 0, 48, 57, 18, 7, 0, 7, 8, 10, 0)
s = 4: (0, 0, 0, 54, 52, 20, 4, 0, 11, 10, 6, 0)
s = 5: (0, 0, 0, 39, 56, 11, 7, 0, 10, 9, 9, 0)
s = 6: (0, 0, 0, 31, 105, 22, 6, 0, 11, 7, 6, 0)
s = 7: (0, 0, 0, 20, 66, 19, 5, 0, 20, 8, 12, 0)
s = 8: (0, 0, 0, 24, 48, 21, 6, 0, 15, 10, 10, 0)
s = 9: (0, 0, 0, 35, 38, 13, 4, 0, 9, 9, 9, 0)
s = 10: (0, 0, 0, 58, 42, 12, 5, 0, 11, 8, 13, 0)
s = 11: (0, 0, 0, 28, 66, 12, 7, 0, 15, 12, 9, 0)
s = 12: (0, 0, 0, 33, 45, 13, 4, 0, 14, 11, 6, 0)
s = 13: (0, 0, 0, 35, 38, 12, 4, 0, 15, 6, 10, 0)
s = 14: (0, 0, 0, 34, 51, 21, 6, 0, 16, 9, 13, 0)
s = 15: (0, 0, 0, 50, 40, 15, 5, 0, 12, 11, 14, 0)
s = 16: (0, 0, 0, 30, 53, 21, 4, 0, 16, 12, 8, 0)
s = 17: (0, 0, 0, 35, 48, 9, 6, 0, 13, 7, 14, 0)
s = 18: (0, 0, 0, 42, 65, 10, 3, 0, 9, 10, 6, 0)
s = 19: (0, 0, 0, 31, 65, 13, 4, 0, 12, 7, 8, 0)
s = 20: (0, 0, 0, 40, 83, 16, 4, 0, 19, 5, 5, 0)
s = 21: (0, 0, 0, 56, 58, 19, 7, 0, 11, 7, 13, 0)
s = 22: (0, 0, 0, 31, 58, 18, 8, 0, 10, 7, 7, 0)
s = 23: (0, 0, 0, 26, 51, 11, 5, 0, 9, 6, 6, 0)
s = 24: (0, 0, 0, 20, 60, 11, 5, 0, 15, 8, 7, 0)
s = 25: (0, 0, 0, 27, 63, 13, 4, 0, 22, 11, 15, 0)
s = 26: (0, 0, 0, 44, 50, 29, 4, 0, 13, 10, 8, 0)
s = 27: (0, 0, 0, 34, 86, 22, 7, 0, 13, 5, 8, 0)
s = 28: (0, 0, 0, 36, 48, 12, 6, 0, 18, 8, 9, 0)
s = 29: (0, 0, 0, 35, 62, 9, 6, 0, 13, 14, 10, 0)
s = 30: (0, 0, 0, 30, 45, 12, 5, 0, 15, 10, 7, 0)
s = 31: (0, 0, 0, 20, 44, 16, 5, 0, 20, 5, 11, 0)
s = 32: (0, 0, 0, 27, 82, 16, 6, 0, 20, 12, 5, 0)
s = 33: (0, 0, 0, 26, 81, 19, 4, 0, 12, 8, 9, 0)
s = 34: (0, 0, 0, 41, 50, 20, 7, 0, 23, 7, 11, 0)
s = 35: (0, 0, 0, 37, 32, 26, 6, 0, 12, 11, 11, 0)
s = 36: (0, 0, 0, 27, 62, 11, 4, 0, 9, 11, 8, 0)
s = 37: (0, 0, 0, 23, 41, 20, 4, 0, 11, 7, 9, 0)
s = 38: (0, 0, 0, 35, 81, 13, 5, 0, 8, 9, 10, 0)
s = 39: (0, 0, 0, 31, 60, 16, 4, 0, 11, 8, 8, 0)
s = 40: (0, 0, 0, 29, 42, 15, 6, 0, 17, 6, 6, 0)
s = 41: (0, 0, 0, 28, 48, 17, 5, 0, 11, 7, 13, 0)
s = 42: (0, 0, 0, 33, 63, 14, 4, 0, 19, 11, 12, 0)
s = 43: (0, 0, 0, 39, 78, 18, 6, 0, 14, 8, 12, 0)
s = 44: (0, 0, 0, 45, 96, 14, 7, 0, 12, 8, 17, 0)
s = 45: (0, 0, 0, 50, 63, 19, 7, 0, 12, 12, 8, 0)
s = 46: (0, 0, 0, 20, 47, 17, 4, 0, 11, 6, 7, 0)
s = 47: (0, 0, 0, 28, 71, 16, 6, 0, 8, 8, 14, 0)
s = 48: (0, 0, 0, 20, 55, 13, 5, 0, 11, 8, 10, 0)
s = 49: (0, 0, 0, 23, 53, 9, 4, 0, 10, 11, 6, 0)
s = 50: (0, 0, 0, 35, 56, 19, 6, 0, 13, 6, 9, 0)
s = 51: (0, 0, 0, 33, 67, 11, 8, 0, 8, 6, 7, 0)
s = 52: (0, 0, 0, 32, 47, 17, 5, 0, 11, 10, 11, 0)
s = 53: (0, 0, 0, 21, 81, 13, 4, 0, 8, 8, 11, 0)
s = 54: (0, 0, 0, 67, 40, 17, 8, 0, 10, 5, 10, 0)
s = 55: (0, 0, 0, 29, 97, 10, 7, 0, 10, 13, 8, 0)
s = 56: (0, 0, 0, 36, 82, 16, 7, 0, 12, 12, 8, 0)
s = 57: (0, 0, 0, 31, 65, 15, 4, 0, 7, 7, 11, 0)
s = 58: (0, 0, 0, 26, 70, 22, 8, 0, 9, 10, 8, 0)
s = 59: (0, 0, 0, 24, 61, 19, 4, 0, 7, 10, 12, 0)
s = 60: (0, 0, 0, 51, 59, 16, 5, 0, 13, 6, 6, 0)
s = 61: (0, 0, 0, 42, 65, 16, 5, 0, 12, 7, 8, 0)
s = 62: (0, 0, 0, 22, 56, 21, 7, 0, 10, 12, 10, 0)
s = 63: (0, 0, 0, 26, 52, 16, 4, 0, 10, 8, 11, 0)
s = 64: (0, 0, 0, 23, 72, 19, 7, 0, 9, 8, 8, 0)
s = 65: (0, 0, 0, 42, 35, 25, 6, 0, 18, 8, 12, 0)
s = 66: (0, 0, 0, 54, 87, 11, 6, 0, 11, 9, 8, 0)
s = 67: (0, 0, 0, 47, 59, 11, 7, 0, 8, 9, 10, 0)
s = 68: (0, 0, 0, 33, 66, 9, 8, 0, 15, 9, 12, 0)
s = 69: (0, 0, 0, 44, 100, 10, 4, 0, 13, 8, 10, 0)
s = 70: (0, 0, 0, 25, 97, 11, 6, 0, 15, 10, 10, 0)
s = 71: (0, 0, 0, 55, 80, 17, 5, 0, 11, 8, 10, 0)
s = 72: (0, 0, 0, 50, 57, 21, 6, 0, 11, 11, 7, 0)
s = 73: (0, 0, 0, 29, 89, 12, 7, 0, 12, 6, 10, 0)
s = 74: (0, 0, 0, 27, 66, 13, 5, 0, 15, 11, 6, 0)
s = 75: (0, 0, 0, 26, 61, 12, 5, 0, 16, 6, 6, 0)
s = 76: (0, 0, 0, 26, 51, 15, 5, 0, 11, 7, 10, 0)
s = 77: (0, 0, 0, 26, 80, 18, 7, 0, 11, 8, 9, 0)
s = 78: (0, 0, 0, 45, 100, 15, 9, 0, 18, 9, 6, 0)
s = 79: (0, 0, 0, 31, 101, 19, 5, 0, 14, 6, 11, 0)
s = 80: (0, 0, 0, 29, 40, 18, 5, 0, 8, 9, 11, 0)
s = 81: (0, 0, 0, 20, 74, 20, 6, 0, 24, 10, 15, 0)
s = 82: (0, 0, 0, 34, 62, 14, 8, 0, 13, 5, 10, 0)
s = 83: (0, 0, 0, 43, 69, 15, 6, 0, 9, 8, 8, 0)
s = 84: (0, 0, 0, 28, 66, 16, 6, 0, 12, 7, 10, 0)
s = 85: (0, 0, 0, 25, 36, 9, 5, 0, 17, 5, 11, 0)
s = 86: (0, 0, 0, 19, 44, 16, 5, 0, 14, 12, 14, 0)
s = 87: (0, 0, 0, 37, 58, 24, 7, 0, 17, 7, 12, 0)
s = 88: (0, 0, 0, 43, 52, 10, 9, 0, 10, 5, 11, 0)
s = 89: (0, 0, 0, 38, 55, 12, 8, 0, 8, 8, 6, 0)
s = 90: (0, 0, 0, 23, 41, 12, 6, 0, 7, 6, 8, 0)
s = 91: (0, 0, 0, 35, 53, 11, 8, 0, 11, 6, 9, 0)
s = 92: (0, 0, 0, 24, 79, 8, 5, 0, 14, 5, 6, 0)
s = 93: (0, 0, 0, 33, 63, 22, 7, 0, 14, 15, 13, 0)
s = 94: (0, 0, 0, 28, 78, 18, 5, 0, 10, 10, 7, 0)
s = 95: (0, 0, 0, 31, 94, 13, 7, 0, 10, 9, 7, 0)
s = 96: (0, 0, 0, 36, 72, 20, 7, 0, 14, 9, 11, 0)
s = 97: (0, 0, 0, 52, 39, 11, 4, 0, 8, 10, 11, 0)
s = 98: (0, 0, 0, 48, 52, 16, 4, 0, 11, 6, 7, 0)
s = 99: (0, 0, 0, 23, 78, 17, 7, 0, 16, 10, 9, 0)
s = 100: (0, 0, 0, 37, 74, 22, 8, 0, 14, 7, 11, 0)
s = 101: (0, 0, 0, 25, 67, 16, 8, 0, 7, 7, 14, 0)
s = 102: (0, 0, 0, 24, 65, 12, 7, 0, 20, 11, 9, 0)
s = 103: (0, 0, 0, 41, 54, 11, 7, 0, 12, 6, 11, 0)
s = 104: (0, 0, 0, 52, 36, 20, 3, 0, 11, 7, 6, 0)
s = 105: (0, 0, 0, 26, 51, 27, 6, 0, 14, 9, 12, 0)
s = 106: (0, 0, 0, 29, 87, 22, 5, 0, 13, 10, 12, 0)
s = 107: (0, 0, 0, 36, 58, 14, 6, 0, 10, 10, 9, 0)
s = 108: (0, 0, 0, 38, 108, 19, 5, 0, 15, 11, 9, 0)
s = 109: (0, 0, 0, 35, 73, 13, 4, 0, 9, 10, 6, 0)
s = 110: (0, 0, 0, 28, 43, 18, 6, 0, 15, 7, 10, 0)
s = 111: (0, 0, 0, 30, 41, 12, 5, 0, 13, 7, 13, 0)
s = 112: (0, 0, 0, 39, 40, 17, 5, 0, 19, 6, 9, 0)
s = 113: (0, 0, 0, 35, 51, 20, 6, 0, 12, 13, 9, 0)
s = 114: (0, 0, 0, 36, 62, 16, 7, 0, 9, 7, 13, 0)
s = 115: (0, 0, 0, 45, 44, 11, 4, 0, 17, 6, 6, 0)
s = 116: (0, 0, 0, 35, 56, 13, 4, 0, 12, 10, 10, 0)
s = 117: (0, 0, 0, 22, 44, 16, 4, 0, 18, 8, 15, 0)
s = 118: (0, 0, 0, 39, 55, 12, 6, 0, 9, 6, 7, 0)
s = 119: (0, 0, 0, 23, 55, 9, 4, 0, 14, 5, 8, 0)
s = 120: (0, 0, 0, 30, 52, 12, 5, 0, 19, 15, 15, 0)
s = 121: (0, 0, 0, 34, 72, 18, 4, 0, 7, 8, 7, 0)
s = 122: (0, 0, 0, 35, 44, 19, 5, 0, 17, 8, 6, 0)
s = 123: (0, 0, 0, 32, 55, 14, 5, 0, 10, 8, 6, 0)
s = 124: (0, 0, 0, 43, 74, 14, 7, 0, 12, 9, 10, 0)
s = 125: (0, 0, 0, 33, 74, 13, 6, 0, 15, 6, 13, 0)
s = 126: (0, 0, 0, 41, 42, 11, 6, 0, 13, 9, 11, 0)
s = 127: (0, 0, 0, 36, 42, 18, 8, 0, 12, 13, 6, 0)
s = 128: (0, 0, 0, 31, 60, 20, 6, 0, 19, 7, 9, 0)
s = 129: (0, 0, 0, 22, 57, 15, 4, 0, 13, 7, 9, 0)
s = 130: (0, 0, 0, 34, 64, 21, 5, 0, 15, 5, 10, 0)
s = 131: (0, 0, 0, 27, 48, 20, 10, 0, 18, 8, 6, 0)
s = 132: (0, 0, 0, 29, 91, 18, 7, 0, 9, 8, 7, 0)
s = 133: (0, 0, 0, 38, 46, 10, 3, 0, 11, 11, 13, 0)
s = 134: (0, 0, 0, 43, 61, 16, 4, 0, 11, 6, 9, 0)
s = 135: (0, 0, 0, 29, 69, 10, 4, 0, 7, 9, 9, 0)
s = 136: (0, 0, 0, 30, 71, 15, 7, 0, 12, 14, 12, 0)
s = 137: (0, 0, 0, 31, 40, 13, 4, 0, 13, 8, 15, 0)
s = 138: (0, 0, 0, 40, 46, 22, 6, 0, 10, 6, 10, 0)
s = 139: (0, 0, 0, 44, 59, 14, 7, 0, 18, 12, 10, 0)
s = 140: (0, 0, 0, 19, 99, 14, 5, 0, 17, 8, 7, 0)
s = 141: (0, 0, 0, 47, 41, 13, 4, 0, 12, 9, 13, 0)
s = 142: (0, 0, 0, 21, 45, 20, 5, 0, 9, 9, 13, 0)
s = 143: (0, 0, 0, 36, 74, 18, 4, 0, 13, 11, 12, 0)
s = 144: (0, 0, 0, 43, 49, 18, 6, 0, 11, 11, 6, 0)
s = 145: (0, 0, 0, 39, 65, 19, 5, 0, 12, 9, 11, 0)
s = 146: (0, 0, 0, 32, 64, 28, 6, 0, 19, 9, 7, 0)
s = 147: (0, 0, 0, 20, 43, 12, 5, 0, 11, 6, 10, 0)
s = 148: (0, 0, 0, 40, 76, 15, 6, 0, 18, 9, 7, 0)
s = 149: (0, 0, 0, 19, 44, 12, 4, 0, 12, 12, 9, 0)
s = 150: (0, 0, 0, 35, 53, 11, 4, 0, 15, 7, 11, 0)
s = 151: (0, 0, 0, 25, 54, 11, 6, 0, 8, 10, 9, 0)
s = 152: (0, 0, 0, 39, 72, 16, 7, 0, 14, 9, 6, 0)
s = 153: (0, 0, 0, 22, 56, 19, 5, 0, 8, 9, 9, 0)
s = 154: (0, 0, 0, 36, 71, 10, 4, 0, 15, 9, 8, 0)
s = 155: (0, 0, 0, 21, 80, 25, 3, 0, 10, 12, 9, 0)
s = 156: (0, 0, 0, 18, 74, 18, 4, 0, 12, 10, 8, 0)
s = 157: (0, 0, 0, 40, 43, 14, 4, 0, 10, 12, 7, 0)
s = 158: (0, 0, 0, 24, 63, 16, 7, 0, 11, 8, 7, 0)
s = 159: (0, 0, 0, 54, 50, 24, 4, 0, 11, 9, 11, 0)
s = 160: (0, 0, 0, 44, 64, 14, 5, 0, 11, 13, 13, 0)
s = 161: (0, 0, 0, 25, 92, 13, 5, 0, 14, 7, 9, 0)
s = 162: (0, 0, 0, 47, 74, 15, 4, 0, 18, 10, 13, 0)
s = 163: (0, 0, 0, 42, 57, 10, 6, 0, 12, 7, 9, 0)
s = 164: (0, 0, 0, 45, 52, 19, 3, 0, 15, 10, 7, 0)
s = 165: (0, 0, 0, 45, 85, 10, 5, 0, 23, 6, 8, 0)
s = 166: (0, 0, 0, 34, 51, 19, 4, 0, 11, 6, 6, 0)
s = 167: (0, 0, 0, 31, 59, 13, 5, 0, 8, 8, 7, 0)
s = 168: (0, 0, 0, 39, 56, 14, 6, 0, 14, 8, 16, 0)
s = 169: (0, 0, 0, 29, 50, 12, 5, 0, 9, 8, 13, 0)
s = 170: (0, 0, 0, 36, 71, 22, 7, 0, 12, 8, 10, 0)
s = 171: (0, 0, 0, 25, 54, 16, 5, 0, 14, 9, 7, 0)
s = 172: (0, 0, 0, 37, 79, 10, 4, 0, 10, 9, 6, 0)
s = 173: (0, 0, 0, 24, 58, 16, 5, 0, 12, 14, 9, 0)
s = 174: (0, 0, 0, 36, 49, 13, 5, 0, 10, 10, 8, 0)
s = 175: (0, 0, 0, 43, 67, 19, 4, 0, 13, 7, 8, 0)
s = 176: (0, 0, 0, 23, 55, 18, 4, 0, 19, 9, 10, 0)
s = 177: (0, 0, 0, 18, 44, 11, 6, 0, 12, 9, 9, 0)
s = 178: (0, 0, 0, 38, 44, 9, 7, 0, 11, 14, 7, 0)
s = 179: (0, 0, 0, 38, 53, 11, 6, 0, 11, 8, 9, 0)
s = 180: (0, 0, 0, 39, 93, 14, 6, 0, 14, 10, 8, 0)
s = 181: (0, 0, 0, 30, 111, 13, 5, 0, 19, 7, 11, 0)
s = 182: (0, 0, 0, 42, 47, 13, 7, 0, 8, 10, 8, 0)
s = 183: (0, 0, 0, 55, 96, 12, 6, 0, 13, 6, 7, 0)
s = 184: (0, 0, 0, 38, 70, 13, 3, 0, 15, 9, 8, 0)
s = 185: (0, 0, 0, 38, 63, 11, 6, 0, 10, 7, 10, 0)
s = 186: (0, 0, 0, 33, 75, 23, 4, 0, 12, 15, 10, 0)
s = 187: (0, 0, 0, 43, 39, 22, 6, 0, 14, 15, 9, 0)
s = 188: (0, 0, 0, 32, 72, 16, 7, 0, 21, 12, 8, 0)
s = 189: (0, 0, 0, 26, 46, 17, 5, 0, 10, 8, 13, 0)
s = 190: (0, 0, 0, 44, 64, 15, 4, 0, 15, 9, 7, 0)
s = 191: (0, 0, 0, 27, 56, 23, 8, 0, 9, 9, 16, 0)
s = 192: (0, 0, 0, 30, 62, 19, 4, 0, 15, 9, 9, 0)
s = 193: (0, 0, 0, 23, 105, 20, 5, 0, 14, 9, 8, 0)
s = 194: (0, 0, 0, 18, 58, 16, 4, 0, 9, 6, 7, 0)
s = 195: (0, 0, 0, 29, 59, 14, 3, 0, 8, 6, 10, 0)
s = 196: (0, 0, 0, 38, 61, 18, 6, 0, 15, 10, 11, 0)
s = 197: (0, 0, 0, 27, 112, 16, 3, 0, 11, 10, 12, 0)
s = 198: (0, 0, 0, 28, 76, 15, 5, 0, 10, 8, 7, 0)
s = 199: (0, 0, 0, 34, 94, 12, 4, 0, 13, 7, 10, 0)
s = 200: (0, 0, 0, 24, 55, 13, 6, 0, 12, 7, 9, 0)
------------------------------------------------------------------------
RESOURCE k = 3
s = 1: (0, 3, 10, 0, 0, 0, 0, 29, 0, 0, 0, 0)
s = 2: (0, 4, 7, 0, 0, 0, 0, 23, 0, 0, 0, 0)
s = 3: (0, 3, 9, 0, 0, 0, 0, 26, 0, 0, 0, 0)
s = 4: (0, 3, 6, 0, 0, 0, 0, 23, 0, 0, 0, 0)
s = 5: (0, 5, 8, 0, 0, 0, 0, 17, 0, 0, 0, 0)
s = 6: (0, 3, 16, 0, 0, 0, 0, 20, 0, 0, 0, 0)
s = 7: (0, 3, 8, 0, 0, 0, 0, 18, 0, 0, 0, 0)
s = 8: (0, 4, 7, 0, 0, 0, 0, 16, 0, 0, 0, 0)
s = 9: (0, 5, 6, 0, 0, 0, 0, 27, 0, 0, 0, 0)
s = 10: (0, 4, 8, 0, 0, 0, 0, 15, 0, 0, 0, 0)
s = 11: (0, 4, 5, 0, 0, 0, 0, 31, 0, 0, 0, 0)
s = 12: (0, 5, 8, 0, 0, 0, 0, 32, 0, 0, 0, 0)
s = 13: (0, 4, 13, 0, 0, 0, 0, 21, 0, 0, 0, 0)
s = 14: (0, 8, 11, 0, 0, 0, 0, 18, 0, 0, 0, 0)
s = 15: (0, 4, 10, 0, 0, 0, 0, 20, 0, 0, 0, 0)
s = 16: (0, 5, 7, 0, 0, 0, 0, 27, 0, 0, 0, 0)
s = 17: (0, 4, 6, 0, 0, 0, 0, 34, 0, 0, 0, 0)
s = 18: (0, 4, 8, 0, 0, 0, 0, 25, 0, 0, 0, 0)
s = 19: (0, 3, 10, 0, 0, 0, 0, 32, 0, 0, 0, 0)
s = 20: (0, 4, 10, 0, 0, 0, 0, 31, 0, 0, 0, 0)
s = 21: (0, 6, 9, 0, 0, 0, 0, 18, 0, 0, 0, 0)
s = 22: (0, 5, 8, 0, 0, 0, 0, 26, 0, 0, 0, 0)
s = 23: (0, 6, 10, 0, 0, 0, 0, 25, 0, 0, 0, 0)
s = 24: (0, 5, 10, 0, 0, 0, 0, 19, 0, 0, 0, 0)
s = 25: (0, 3, 9, 0, 0, 0, 0, 16, 0, 0, 0, 0)
s = 26: (0, 4, 6, 0, 0, 0, 0, 23, 0, 0, 0, 0)
s = 27: (0, 3, 7, 0, 0, 0, 0, 22, 0, 0, 0, 0)
s = 28: (0, 4, 12, 0, 0, 0, 0, 24, 0, 0, 0, 0)
s = 29: (0, 4, 6, 0, 0, 0, 0, 20, 0, 0, 0, 0)
s = 30: (0, 4, 14, 0, 0, 0, 0, 44, 0, 0, 0, 0)
s = 31: (0, 5, 6, 0, 0, 0, 0, 25, 0, 0, 0, 0)
s = 32: (0, 4, 7, 0, 0, 0, 0, 16, 0, 0, 0, 0)
s = 33: (0, 4, 7, 0, 0, 0, 0, 33, 0, 0, 0, 0)
s = 34: (0, 5, 9, 0, 0, 0, 0, 32, 0, 0, 0, 0)
s = 35: (0, 4, 11, 0, 0, 0, 0, 19, 0, 0, 0, 0)
s = 36: (0, 5, 7, 0, 0, 0, 0, 37, 0, 0, 0, 0)
s = 37: (0, 7, 6, 0, 0, 0, 0, 15, 0, 0, 0, 0)
s = 38: (0, 3, 8, 0, 0, 0, 0, 23, 0, 0, 0, 0)
s = 39: (0, 3, 6, 0, 0, 0, 0, 29, 0, 0, 0, 0)
s = 40: (0, 5, 7, 0, 0, 0, 0, 24, 0, 0, 0, 0)
s = 41: (0, 5, 15, 0, 0, 0, 0, 16, 0, 0, 0, 0)
s = 42: (0, 5, 9, 0, 0, 0, 0, 28, 0, 0, 0, 0)
s = 43: (0, 4, 5, 0, 0, 0, 0, 28, 0, 0, 0, 0)
s = 44: (0, 5, 6, 0, 0, 0, 0, 20, 0, 0, 0, 0)
s = 45: (0, 3, 10, 0, 0, 0, 0, 28, 0, 0, 0, 0)
s = 46: (0, 5, 13, 0, 0, 0, 0, 25, 0, 0, 0, 0)
s = 47: (0, 4, 5, 0, 0, 0, 0, 24, 0, 0, 0, 0)
s = 48: (0, 4, 8, 0, 0, 0, 0, 17, 0, 0, 0, 0)
s = 49: (0, 4, 12, 0, 0, 0, 0, 34, 0, 0, 0, 0)
s = 50: (0, 3, 9, 0, 0, 0, 0, 24, 0, 0, 0, 0)
s = 51: (0, 3, 11, 0, 0, 0, 0, 42, 0, 0, 0, 0)
s = 52: (0, 4, 5, 0, 0, 0, 0, 25, 0, 0, 0, 0)
s = 53: (0, 4, 10, 0, 0, 0, 0, 31, 0, 0, 0, 0)
s = 54: (0, 6, 9, 0, 0, 0, 0, 33, 0, 0, 0, 0)
s = 55: (0, 5, 8, 0, 0, 0, 0, 37, 0, 0, 0, 0)
s = 56: (0, 5, 8, 0, 0, 0, 0, 26, 0, 0, 0, 0)
s = 57: (0, 3, 8, 0, 0, 0, 0, 38, 0, 0, 0, 0)
s = 58: (0, 4, 5, 0, 0, 0, 0, 15, 0, 0, 0, 0)
s = 59: (0, 3, 9, 0, 0, 0, 0, 35, 0, 0, 0, 0)
s = 60: (0, 4, 12, 0, 0, 0, 0, 20, 0, 0, 0, 0)
s = 61: (0, 4, 7, 0, 0, 0, 0, 28, 0, 0, 0, 0)
s = 62: (0, 4, 6, 0, 0, 0, 0, 25, 0, 0, 0, 0)
s = 63: (0, 3, 11, 0, 0, 0, 0, 34, 0, 0, 0, 0)
s = 64: (0, 3, 9, 0, 0, 0, 0, 37, 0, 0, 0, 0)
s = 65: (0, 4, 10, 0, 0, 0, 0, 47, 0, 0, 0, 0)
s = 66: (0, 3, 13, 0, 0, 0, 0, 36, 0, 0, 0, 0)
s = 67: (0, 6, 11, 0, 0, 0, 0, 21, 0, 0, 0, 0)
s = 68: (0, 4, 6, 0, 0, 0, 0, 21, 0, 0, 0, 0)
s = 69: (0, 3, 9, 0, 0, 0, 0, 30, 0, 0, 0, 0)
s = 70: (0, 5, 8, 0, 0, 0, 0, 31, 0, 0, 0, 0)
s = 71: (0, 6, 9, 0, 0, 0, 0, 20, 0, 0, 0, 0)
s = 72: (0, 4, 8, 0, 0, 0, 0, 29, 0, 0, 0, 0)
s = 73: (0, 4, 5, 0, 0, 0, 0, 25, 0, 0, 0, 0)
s = 74: (0, 3, 12, 0, 0, 0, 0, 32, 0, 0, 0, 0)
s = 75: (0, 6, 7, 0, 0, 0, 0, 14, 0, 0, 0, 0)
s = 76: (0, 3, 9, 0, 0, 0, 0, 15, 0, 0, 0, 0)
s = 77: (0, 4, 13, 0, 0, 0, 0, 38, 0, 0, 0, 0)
s = 78: (0, 5, 8, 0, 0, 0, 0, 23, 0, 0, 0, 0)
s = 79: (0, 4, 8, 0, 0, 0, 0, 42, 0, 0, 0, 0)
s = 80: (0, 6, 9, 0, 0, 0, 0, 26, 0, 0, 0, 0)
s = 81: (0, 5, 8, 0, 0, 0, 0, 16, 0, 0, 0, 0)
s = 82: (0, 4, 7, 0, 0, 0, 0, 32, 0, 0, 0, 0)
s = 83: (0, 5, 7, 0, 0, 0, 0, 30, 0, 0, 0, 0)
s = 84: (0, 4, 9, 0, 0, 0, 0, 30, 0, 0, 0, 0)
s = 85: (0, 6, 8, 0, 0, 0, 0, 19, 0, 0, 0, 0)
s = 86: (0, 7, 7, 0, 0, 0, 0, 25, 0, 0, 0, 0)
s = 87: (0, 6, 5, 0, 0, 0, 0, 29, 0, 0, 0, 0)
s = 88: (0, 5, 5, 0, 0, 0, 0, 37, 0, 0, 0, 0)
s = 89: (0, 4, 7, 0, 0, 0, 0, 28, 0, 0, 0, 0)
s = 90: (0, 4, 7, 0, 0, 0, 0, 27, 0, 0, 0, 0)
s = 91: (0, 4, 13, 0, 0, 0, 0, 26, 0, 0, 0, 0)
s = 92: (0, 4, 9, 0, 0, 0, 0, 23, 0, 0, 0, 0)
s = 93: (0, 4, 8, 0, 0, 0, 0, 14, 0, 0, 0, 0)
s = 94: (0, 6, 13, 0, 0, 0, 0, 18, 0, 0, 0, 0)
s = 95: (0, 4, 12, 0, 0, 0, 0, 21, 0, 0, 0, 0)
s = 96: (0, 4, 10, 0, 0, 0, 0, 17, 0, 0, 0, 0)
s = 97: (0, 4, 10, 0, 0, 0, 0, 20, 0, 0, 0, 0)
s = 98: (0, 4, 12, 0, 0, 0, 0, 27, 0, 0, 0, 0)
s = 99: (0, 4, 6, 0, 0, 0, 0, 23, 0, 0, 0, 0)
s = 100: (0, 4, 7, 0, 0, 0, 0, 34, 0, 0, 0, 0)
s = 101: (0, 6, 9, 0, 0, 0, 0, 17, 0, 0, 0, 0)
s = 102: (0, 4, 6, 0, 0, 0, 0, 24, 0, 0, 0, 0)
s = 103: (0, 4, 7, 0, 0, 0, 0, 20, 0, 0, 0, 0)
s = 104: (0, 5, 7, 0, 0, 0, 0, 25, 0, 0, 0, 0)
s = 105: (0, 3, 12, 0, 0, 0, 0, 28, 0, 0, 0, 0)
s = 106: (0, 3, 5, 0, 0, 0, 0, 14, 0, 0, 0, 0)
s = 107: (0, 4, 6, 0, 0, 0, 0, 29, 0, 0, 0, 0)
s = 108: (0, 3, 8, 0, 0, 0, 0, 20, 0, 0, 0, 0)
s = 109: (0, 4, 6, 0, 0, 0, 0, 27, 0, 0, 0, 0)
s = 110: (0, 3, 7, 0, 0, 0, 0, 29, 0, 0, 0, 0)
s = 111: (0, 4, 14, 0, 0, 0, 0, 17, 0, 0, 0, 0)
s = 112: (0, 3, 12, 0, 0, 0, 0, 15, 0, 0, 0, 0)
s = 113: (0, 5, 11, 0, 0, 0, 0, 41, 0, 0, 0, 0)
s = 114: (0, 6, 7, 0, 0, 0, 0, 31, 0, 0, 0, 0)
s = 115: (0, 3, 6, 0, 0, 0, 0, 31, 0, 0, 0, 0)
s = 116: (0, 4, 6, 0, 0, 0, 0, 22, 0, 0, 0, 0)
s = 117: (0, 6, 14, 0, 0, 0, 0, 30, 0, 0, 0, 0)
s = 118: (0, 5, 5, 0, 0, 0, 0, 31, 0, 0, 0, 0)
s = 119: (0, 7, 8, 0, 0, 0, 0, 38, 0, 0, 0, 0)
s = 120: (0, 3, 12, 0, 0, 0, 0, 17, 0, 0, 0, 0)
s = 121: (0, 6, 6, 0, 0, 0, 0, 26, 0, 0, 0, 0)
s = 122: (0, 4, 15, 0, 0, 0, 0, 27, 0, 0, 0, 0)
s = 123: (0, 6, 10, 0, 0, 0, 0, 35, 0, 0, 0, 0)
s = 124: (0, 3, 7, 0, 0, 0, 0, 24, 0, 0, 0, 0)
s = 125: (0, 4, 11, 0, 0, 0, 0, 28, 0, 0, 0, 0)
s = 126: (0, 4, 5, 0, 0, 0, 0, 24, 0, 0, 0, 0)
s = 127: (0, 5, 9, 0, 0, 0, 0, 21, 0, 0, 0, 0)
s = 128: (0, 6, 7, 0, 0, 0, 0, 28, 0, 0, 0, 0)
s = 129: (0, 4, 8, 0, 0, 0, 0, 18, 0, 0, 0, 0)
s = 130: (0, 6, 7, 0, 0, 0, 0, 23, 0, 0, 0, 0)
s = 131: (0, 6, 5, 0, 0, 0, 0, 28, 0, 0, 0, 0)
s = 132: (0, 6, 10, 0, 0, 0, 0, 18, 0, 0, 0, 0)
s = 133: (0, 3, 8, 0, 0, 0, 0, 33, 0, 0, 0, 0)
s = 134: (0, 3, 8, 0, 0, 0, 0, 27, 0, 0, 0, 0)
s = 135: (0, 5, 6, 0, 0, 0, 0, 19, 0, 0, 0, 0)
s = 136: (0, 5, 9, 0, 0, 0, 0, 22, 0, 0, 0, 0)
s = 137: (0, 3, 8, 0, 0, 0, 0, 34, 0, 0, 0, 0)
s = 138: (0, 4, 8, 0, 0, 0, 0, 22, 0, 0, 0, 0)
s = 139: (0, 7, 13, 0, 0, 0, 0, 21, 0, 0, 0, 0)
s = 140: (0, 4, 11, 0, 0, 0, 0, 21, 0, 0, 0, 0)
s = 141: (0, 3, 9, 0, 0, 0, 0, 21, 0, 0, 0, 0)
s = 142: (0, 5, 10, 0, 0, 0, 0, 34, 0, 0, 0, 0)
s = 143: (0, 5, 10, 0, 0, 0, 0, 18, 0, 0, 0, 0)
s = 144: (0, 5, 10, 0, 0, 0, 0, 35, 0, 0, 0, 0)
s = 145: (0, 4, 5, 0, 0, 0, 0, 28, 0, 0, 0, 0)
s = 146: (0, 5, 12, 0, 0, 0, 0, 42, 0, 0, 0, 0)
s = 147: (0, 7, 11, 0, 0, 0, 0, 24, 0, 0, 0, 0)
s = 148: (0, 4, 8, 0, 0, 0, 0, 27, 0, 0, 0, 0)
s = 149: (0, 3, 8, 0, 0, 0, 0, 30, 0, 0, 0, 0)
s = 150: (0, 6, 10, 0, 0, 0, 0, 27, 0, 0, 0, 0)
s = 151: (0, 4, 12, 0, 0, 0, 0, 26, 0, 0, 0, 0)
s = 152: (0, 5, 7, 0, 0, 0, 0, 20, 0, 0, 0, 0)
s = 153: (0, 5, 14, 0, 0, 0, 0, 20, 0, 0, 0, 0)
s = 154: (0, 4, 7, 0, 0, 0, 0, 19, 0, 0, 0, 0)
s = 155: (0, 5, 15, 0, 0, 0, 0, 22, 0, 0, 0, 0)
s = 156: (0, 4, 8, 0, 0, 0, 0, 21, 0, 0, 0, 0)
s = 157: (0, 3, 7, 0, 0, 0, 0, 35, 0, 0, 0, 0)
s = 158: (0, 3, 7, 0, 0, 0, 0, 24, 0, 0, 0, 0)
s = 159: (0, 4, 10, 0, 0, 0, 0, 36, 0, 0, 0, 0)
s = 160: (0, 5, 9, 0, 0, 0, 0, 26, 0, 0, 0, 0)
s = 161: (0, 4, 6, 0, 0, 0, 0, 18, 0, 0, 0, 0)
s = 162: (0, 5, 6, 0, 0, 0, 0, 27, 0, 0, 0, 0)
s = 163: (0, 5, 7, 0, 0, 0, 0, 17, 0, 0, 0, 0)
s = 164: (0, 4, 7, 0, 0, 0, 0, 16, 0, 0, 0, 0)
s = 165: (0, 6, 6, 0, 0, 0, 0, 22, 0, 0, 0, 0)
s = 166: (0, 5, 9, 0, 0, 0, 0, 28, 0, 0, 0, 0)
s = 167: (0, 5, 8, 0, 0, 0, 0, 23, 0, 0, 0, 0)
s = 168: (0, 3, 6, 0, 0, 0, 0, 30, 0, 0, 0, 0)
s = 169: (0, 4, 7, 0, 0, 0, 0, 20, 0, 0, 0, 0)
s = 170: (0, 3, 8, 0, 0, 0, 0, 36, 0, 0, 0, 0)
s = 171: (0, 4, 8, 0, 0, 0, 0, 19, 0, 0, 0, 0)
s = 172: (0, 5, 5, 0, 0, 0, 0, 43, 0, 0, 0, 0)
s = 173: (0, 4, 8, 0, 0, 0, 0, 21, 0, 0, 0, 0)
s = 174: (0, 6, 10, 0, 0, 0, 0, 24, 0, 0, 0, 0)
s = 175: (0, 3, 8, 0, 0, 0, 0, 21, 0, 0, 0, 0)
s = 176: (0, 5, 12, 0, 0, 0, 0, 43, 0, 0, 0, 0)
s = 177: (0, 3, 7, 0, 0, 0, 0, 19, 0, 0, 0, 0)
s = 178: (0, 3, 6, 0, 0, 0, 0, 33, 0, 0, 0, 0)
s = 179: (0, 6, 8, 0, 0, 0, 0, 32, 0, 0, 0, 0)
s = 180: (0, 6, 10, 0, 0, 0, 0, 17, 0, 0, 0, 0)
s = 181: (0, 3, 10, 0, 0, 0, 0, 16, 0, 0, 0, 0)
s = 182: (0, 3, 9, 0, 0, 0, 0, 28, 0, 0, 0, 0)
s = 183: (0, 6, 10, 0, 0, 0, 0, 27, 0, 0, 0, 0)
s = 184: (0, 3, 12, 0, 0, 0, 0, 34, 0, 0, 0, 0)
s = 185: (0, 3, 8, 0, 0, 0, 0, 23, 0, 0, 0, 0)
s = 186: (0, 5, 9, 0, 0, 0, 0, 25, 0, 0, 0, 0)
s = 187: (0, 4, 7, 0, 0, 0, 0, 25, 0, 0, 0, 0)
s = 188: (0, 6, 6, 0, 0, 0, 0, 20, 0, 0, 0, 0)
s = 189: (0, 5, 7, 0, 0, 0, 0, 21, 0, 0, 0, 0)
s = 190: (0, 4, 10, 0, 0, 0, 0, 14, 0, 0, 0, 0)
s = 191: (0, 4, 9, 0, 0, 0, 0, 29, 0, 0, 0, 0)
s = 192: (0, 5, 5, 0, 0, 0, 0, 34, 0, 0, 0, 0)
s = 193: (0, 5, 10, 0, 0, 0, 0, 18, 0, 0, 0, 0)
s = 194: (0, 3, 5, 0, 0, 0, 0, 29, 0, 0, 0, 0)
s = 195: (0, 3, 7, 0, 0, 0, 0, 27, 0, 0, 0, 0)
s = 196: (0, 6, 12, 0, 0, 0, 0, 23, 0, 0, 0, 0)
s = 197: (0, 8, 10, 0, 0, 0, 0, 33, 0, 0, 0, 0)
s = 198: (0, 6, 9, 0, 0, 0, 0, 38, 0, 0, 0, 0)
s = 199: (0, 4, 9, 0, 0, 0, 0, 41, 0, 0, 0, 0)
s = 200: (0, 6, 12, 0, 0, 0, 0, 22, 0, 0, 0, 0)
************************************************************************
ES/LS-VALUES:
jobnr.   ES(i)    LS(i)
------------------------------------------------------------------------
  0        0        0
  1        0       67
  2        0       55
  3        0       45
  4        8       54
  5        4       59
  6       20       67
  7       22       69
  8       31       79
  9       13       77
 10        8       79
 11       37       85
************************************************************************
BIG-M-VALUES:
M1 = 58, M2 = 307
************************************************************************
